46386
1063
10939
5906
113
0
1522
5035
22498
6044
220
12336
42041
30
11430
43513
5045
5380
21448
5309
43811
2049
43883
1203
326
42950
42430
3266
11955
9995
582
1069
24042
131991
2346
130
30
10203
265
21253
4991
199
23919
11536
43379
44144
84
677
5188
169
1862
4948
4680
22187
4501
618
43315
509
5090
57
42224
10502
1012
41137
2492
559
10585
204230
22040
45
5354
5236
1032
20773
22413
619
76999
76
5009
2199
5510
1229
10643
389
55
11235
10387
1092
10856
5245
4809
457
22939
11435
1974
2404
522
22520
1132
14066
